(set-logic QF_AUFBV)
(declare-fun v0 () (_ BitVec 4))
(declare-fun bvlambda_1_ () (_ BitVec 3))
(declare-fun bvlambda_2_ () (_ BitVec 8))
(declare-fun bvlambda_3_ () (_ BitVec 1))
(declare-fun bvlambda_4_ () (_ BitVec 2))
(declare-fun bvlambda_5_ () (_ BitVec 2))
(declare-fun bvlambda_6_ () (_ BitVec 1))
(declare-fun bvlambda_7_ () (_ BitVec 1))
(declare-fun bvlambda_8_ () (_ BitVec 3))
(declare-fun bvlambda_9_ () (_ BitVec 2))
(declare-fun bvlambda_10_ () (_ BitVec 1))
(declare-fun a41 () (Array (_ BitVec 2) (_ BitVec 8)))
(declare-fun a42 () (Array (_ BitVec 11) (_ BitVec 4)))
(declare-fun a43 () (Array (_ BitVec 14) (_ BitVec 11)))
(declare-fun a44 () (Array (_ BitVec 1) (_ BitVec 2)))
(declare-fun a45 () (Array (_ BitVec 14) (_ BitVec 7)))
(declare-fun a46 () (Array (_ BitVec 15) (_ BitVec 1)))
(assert
(let (($e1 (_ bv0 1)))
(let (($e2 (_ bv2446 14)))
(let (($e3 (_ bv7618 14)))
(let (($e4 (_ bv56770 16)))
(let (($e5 (_ bv0 6)))
(let (($e6 (_ bv2446 16)))
(let (($e7 (_ bv65534 16)))
(let (($e8 (_ bv0 15)))
(let (($e9 (_ bv2 2)))
(let (($e10 (_ bv16382 14)))
(let (($e11 (_ bv0 13)))
(let (($e12 (_ bv2446 15)))
(let (($e13 (_ bv0 7)))
(let (($e14 (_ bv0 9)))
(let (($e15 (_ bv286 11)))
(let (($e16 (_ bv0 5)))
(let (($e17 (_ bv0 3)))
(let (($e18 (_ bv0 12)))
(let (($e19 (_ bv0 8)))
(let (($e20 (_ bv126 7)))
(let (($e21 (_ bv0 4)))
(let (($e22 (_ bv0 11)))
(let (($e23 (_ bv0 2)))
(let (($e24 (_ bv65522 16)))
(let (($e25 (_ bv0 16)))
(let (($e26 (_ bv0 10)))
(let (($e27 (_ bv0 14)))
(let (($e28 (_ bv32716 15)))
(let (($e29 (_ bv18 5)))
(let (($e47 (concat $e5 bvlambda_6_)))
(let (($e48 (concat $e47 bvlambda_7_)))
(let (($e49 (concat $e48 bvlambda_8_)))
(let (($e50 (concat $e49 bvlambda_9_)))
(let (($e51 (concat $e50 bvlambda_10_)))
(let (($e52 (ite (bvult (bvnot $e3) $e51) #b1 #b0)))
(let (($e53 (concat (bvnot $e8) (bvnot $e52))))
(let (($e54 (concat $e8 (bvnot $e52))))
(let (($e55 (ite (= #b1 $e52) $e54 $e53)))
(let (($e56 (concat bvlambda_1_ bvlambda_2_)))
(let (($e57 (concat $e56 bvlambda_3_)))
(let (($e58 (concat $e57 bvlambda_4_)))
(let (($e59 (concat $e58 bvlambda_5_)))
(let (($e60 (bvmul (bvnot $e4) $e59)))
(let (($e61 (bvadd (bvnot $e7) (bvnot $e60))))
(let (($e62 ((_ extract 15 15) $e60)))
(let (($e63 (ite (= #b1 $e62) $e61 $e60)))
(let (($e64 (bvudiv $e6 $e63)))
(let (($e65 (bvadd (bvnot $e7) (bvnot $e64))))
(let (($e66 (ite (= #b1 $e62) $e65 $e64)))
(let (($e67 (bvand $e66 $e55)))
(let (($e68 (bvand (bvnot $e66) (bvnot $e55))))
(let (($e69 (bvand (bvnot $e68) (bvnot $e67))))
(let (($e70 ((_ extract 0 0) $e69)))
(let (($e71 (ite (= $e52 $e70) #b1 #b0)))
(let (($e72 ((_ extract 15 1) $e69)))
(let (($e73 (ite (= $e8 (bvnot $e72)) #b1 #b0)))
(let (($e74 (bvand $e73 $e71)))
(let (($e75 (select a42 $e15)))
(let (($e76 (ite (= v0 $e75) #b1 #b0)))
(let (($e77 (bvand $e76 (bvnot $e74))))
(let (($e78 ((_ extract 15 2) $e66)))
(let (($e79 (select a43 $e78)))
(let (($e80 (ite (= $e22 $e79) #b1 #b0)))
(let (($e81 (bvand (bvnot $e80) $e77)))
(let (($e82 ((_ extract 13 0) $e60)))
(let (($e83 (select a45 $e82)))
(let (($e84 (concat $e13 $e83)))
(let (($e85 (concat bvlambda_2_ bvlambda_3_)))
(let (($e86 (concat $e85 bvlambda_4_)))
(let (($e87 ((_ extract 14 1) $e60)))
(let (($e88 (store a43 $e87 $e86)))
(let (($e89 (select $e88 $e84)))
(let (($e90 (concat $e13 $e75)))
(let (($e91 (ite (bvult $e90 $e89) #b1 #b0)))
(let (($e92 (bvand (bvnot $e91) (bvnot $e81))))
(let (($e93 (bvadd (bvnot $e20) (bvnot $e83))))
(let (($e94 ((_ extract 6 6) $e83)))
(let (($e95 (ite (= #b1 $e94) $e93 $e83)))
(let (($e96 (concat $e17 $e75)))
(let (($e97 (concat (bvnot $e17) $e75)))
(let (($e98 ((_ extract 3 3) $e75)))
(let (($e99 (ite (= #b1 $e98) $e97 $e96)))
(let (($e100 (bvadd (bvnot $e99) (bvnot $e20))))
(let (($e101 ((_ extract 6 6) $e99)))
(let (($e102 (ite (= #b1 $e101) $e100 $e99)))
(let (($e103 (bvudiv $e102 $e95)))
(let (($e104 (bvadd (bvnot $e20) (bvnot $e103))))
(let (($e105 (bvand $e101 $e94)))
(let (($e106 (bvand (bvnot $e101) (bvnot $e94))))
(let (($e107 (bvand (bvnot $e106) (bvnot $e105))))
(let (($e108 (ite (= #b1 $e107) $e104 $e103)))
(let (($e109 (concat $e21 $e108)))
(let (($e110 (bvurem $e109 $e89)))
(let (($e111 (concat $e16 $e110)))
(let (($e112 (concat (bvnot $e16) $e110)))
(let (($e113 ((_ extract 10 10) $e110)))
(let (($e114 (ite (= #b1 $e113) $e112 $e111)))
(let (($e115 (bvadd (bvnot $e7) (bvnot $e66))))
(let (($e116 ((_ extract 15 15) $e66)))
(let (($e117 (ite (= #b1 $e116) $e115 $e66)))
(let (($e118 (bvurem (bvnot $e24) $e117)))
(let (($e119 (bvadd $e66 $e118)))
(let (($e120 (ite (= $e25 $e118) #b1 #b0)))
(let (($e121 (bvand $e116 (bvnot $e120))))
(let (($e122 (ite (= #b1 $e121) $e119 $e25)))
(let (($e123 (ite (= #b1 $e116) $e25 $e118)))
(let (($e124 (bvand (bvnot $e123) (bvnot $e122))))
(let (($e125 (ite (= (bvnot $e124) $e114) #b1 #b0)))
(let (($e126 (ite (= $e125 $e92) #b1 #b0)))
(let (($e127 ((_ extract 4 4) $e69)))
(let (($e128 ((_ extract 6 5) $e66)))
(let (($e129 (store a44 (bvnot $e1) $e128)))
(let (($e130 (store $e129 (bvnot $e127) (bvnot $e9))))
(let (($e131 (select $e130 bvlambda_3_)))
(let (($e132 (select a41 $e131)))
(let (($e133 (concat $e21 $e132)))
(let (($e134 (concat (bvnot $e21) $e132)))
(let (($e135 ((_ extract 7 7) $e132)))
(let (($e136 (ite (= #b1 $e135) $e134 $e133)))
(let (($e137 (select a45 (bvnot $e10))))
(let (($e138 ((_ extract 9 0) $e89)))
(let (($e139 (concat $e19 $e131)))
(let (($e140 (ite (bvult $e139 $e138) #b1 #b0)))
(let (($e141 ((_ extract 10 10) $e89)))
(let (($e142 (bvand (bvnot $e141) $e140)))
(let (($e143 (concat $e5 $e142)))
(let (($e144 (concat (bvnot $e5) $e142)))
(let (($e145 (ite (= #b1 $e142) $e144 $e143)))
(let (($e146 (ite (bvult $e145 $e137) #b1 #b0)))
(let (($e147 (concat $e79 (bvnot $e146))))
(let (($e148 (bvand (bvnot $e147) (bvnot $e136))))
(let (($e149 ((_ extract 0 0) $e148)))
(let (($e150 (select $e129 (bvnot $e52))))
(let (($e151 (concat $e18 $e150)))
(let (($e152 (concat (bvnot $e18) $e150)))
(let (($e153 ((_ extract 1 1) $e150)))
(let (($e154 (ite (= #b1 $e153) $e152 $e151)))
(let (($e155 (ite (= (bvnot $e3) $e154) #b1 #b0)))
(let (($e156 (ite (= $e155 $e149) #b1 #b0)))
(let (($e157 ((_ extract 11 1) $e148)))
(let (($e158 (ite (= $e22 (bvnot $e157)) #b1 #b0)))
(let (($e159 (bvand $e158 $e156)))
(let (($e160 ((_ extract 12 12) $e69)))
(let (($e161 (select $e130 (bvnot $e160))))
(let (($e162 (ite (= $e23 $e161) #b1 #b0)))
(let (($e163 (bvand $e162 $e159)))
(let (($e164 (ite (= $e141 $e113) #b1 #b0)))
(let (($e165 ((_ extract 9 0) $e110)))
(let (($e166 (ite (bvult $e165 $e138) #b1 #b0)))
(let (($e167 (bvand $e166 $e164)))
(let (($e168 (bvand (bvnot $e141) $e113)))
(let (($e169 (bvand (bvnot $e168) (bvnot $e167))))
(let (($e170 (bvand (bvnot $e169) (bvnot $e163))))
(let (($e171 ((_ extract 0 0) $e161)))
(let (($e172 ((_ extract 1 1) $e161)))
(let (($e173 (bvand (bvnot $e172) $e171)))
(let (($e174 (select a41 bvlambda_9_)))
(let (($e175 (concat $e13 $e174)))
(let (($e176 (select a46 $e175)))
(let (($e177 (concat $e22 $e176)))
(let (($e178 (concat (bvnot $e22) $e176)))
(let (($e179 (ite (= #b1 $e176) $e178 $e177)))
(let (($e180 (select a46 $e12)))
(let (($e181 (concat $e22 $e180)))
(let (($e182 (concat (bvnot $e22) $e180)))
(let (($e183 (ite (= #b1 $e180) $e182 $e181)))
(let (($e184 (ite (= $e183 $e179) #b1 #b0)))
(let (($e185 (ite (= $e184 (bvnot $e173)) #b1 #b0)))
(let (($e186 (bvand $e169 (bvnot $e185))))
(let (($e187 (bvand (bvnot $e186) (bvnot $e170))))
(let (($e188 ((_ extract 5 0) $e108)))
(let (($e189 (concat $e16 $e142)))
(let (($e190 (ite (bvult $e189 $e188) #b1 #b0)))
(let (($e191 ((_ extract 6 6) $e108)))
(let (($e192 (bvand (bvnot $e191) $e190)))
(let (($e193 (concat $e13 $e192)))
(let (($e194 (concat (bvnot $e13) $e192)))
(let (($e195 (ite (= #b1 $e192) $e194 $e193)))
(let (($e196 ((_ extract 7 7) $e195)))
(let (($e197 (ite (= $e135 $e196) #b1 #b0)))
(let (($e198 ((_ extract 6 0) $e195)))
(let (($e199 ((_ extract 6 0) $e132)))
(let (($e200 (ite (bvult $e199 $e198) #b1 #b0)))
(let (($e201 (bvand $e200 $e197)))
(let (($e202 (bvand $e135 (bvnot $e196))))
(let (($e203 (bvand (bvnot $e202) (bvnot $e201))))
(let (($e204 (concat $e5 $e176)))
(let (($e205 (concat (bvnot $e5) $e176)))
(let (($e206 (ite (= #b1 $e176) $e205 $e204)))
(let (($e207 (ite (bvult $e83 $e206) #b1 #b0)))
(let (($e208 (bvand (bvnot $e207) (bvnot $e203))))
(let (($e209 (concat (bvnot $e13) (bvnot $e52))))
(let (($e210 (concat $e13 (bvnot $e52))))
(let (($e211 (ite (= #b1 $e52) $e210 $e209)))
(let (($e212 ((_ extract 0 0) $e211)))
(let (($e213 (ite (= bvlambda_10_ $e212) #b1 #b0)))
(let (($e214 ((_ extract 2 1) $e211)))
(let (($e215 (ite (= bvlambda_9_ $e214) #b1 #b0)))
(let (($e216 ((_ extract 5 3) $e211)))
(let (($e217 (ite (= bvlambda_8_ $e216) #b1 #b0)))
(let (($e218 ((_ extract 6 6) $e211)))
(let (($e219 (ite (= bvlambda_7_ $e218) #b1 #b0)))
(let (($e220 ((_ extract 7 7) $e211)))
(let (($e221 (ite (= bvlambda_6_ $e220) #b1 #b0)))
(let (($e222 (bvand $e221 $e219)))
(let (($e223 (bvand $e222 $e217)))
(let (($e224 (bvand $e223 $e215)))
(let (($e225 (bvand $e224 $e213)))
(let (($e226 (select $e130 (bvnot $e1))))
(let (($e227 (concat $e16 $e226)))
(let (($e228 (bvand $e137 $e227)))
(let (($e229 (bvand (bvnot $e137) (bvnot $e227))))
(let (($e230 (bvand (bvnot $e229) (bvnot $e228))))
(let (($e231 (concat $e14 (bvnot $e230))))
(let (($e232 (bvand $e60 $e231)))
(let (($e233 (bvand (bvnot $e60) (bvnot $e231))))
(let (($e234 (bvand (bvnot $e233) (bvnot $e232))))
(let (($e235 ((_ extract 1 0) $e234)))
(let (($e236 (select a44 $e1)))
(let (($e237 (ite (= $e236 $e235) #b1 #b0)))
(let (($e238 ((_ extract 15 2) $e234)))
(let (($e239 (ite (= $e27 (bvnot $e238)) #b1 #b0)))
(let (($e240 (bvand $e239 $e237)))
(let (($e241 (bvand $e240 $e225)))
(let (($e242 (bvand $e207 $e241)))
(let (($e243 (bvand (bvnot $e242) (bvnot $e208))))
(let (($e244 (ite (= $e243 $e187) #b1 #b0)))
(let (($e245 (concat $e14 $e83)))
(let (($e246 (concat (bvnot $e14) $e83)))
(let (($e247 (ite (= #b1 $e94) $e246 $e245)))
(let (($e248 ((_ extract 15 15) $e247)))
(let (($e249 ((_ extract 15 15) $e124)))
(let (($e250 (bvand $e249 $e248)))
(let (($e251 (bvand (bvnot $e249) (bvnot $e248))))
(let (($e252 (bvand (bvnot $e251) (bvnot $e250))))
(let (($e253 ((_ extract 14 0) $e247)))
(let (($e254 ((_ extract 14 0) $e124)))
(let (($e255 (ite (bvult (bvnot $e254) $e253) #b1 #b0)))
(let (($e256 (bvand $e255 $e252)))
(let (($e257 (bvand (bvnot $e251) (bvnot $e256))))
(let (($e258 (bvand $e257 $e244)))
(let (($e259 (bvand (bvnot $e257) (bvnot $e244))))
(let (($e260 (bvand (bvnot $e259) (bvnot $e258))))
(let (($e261 (bvand $e260 $e126)))
(let (($e262 ((_ extract 14 0) $e69)))
(let (($e263 (ite (bvult $e262 $e28) #b1 #b0)))
(let (($e264 ((_ extract 15 15) $e69)))
(let (($e265 (bvand $e264 $e263)))
(let (($e266 (concat bvlambda_7_ bvlambda_8_)))
(let (($e267 (concat $e266 bvlambda_9_)))
(let (($e268 (concat $e267 bvlambda_10_)))
(let (($e269 ((_ extract 0 0) $e236)))
(let (($e270 (concat $e11 $e236)))
(let (($e271 (store a46 $e270 $e1)))
(let (($e272 (select $e271 $e12)))
(let (($e273 (bvand $e272 (bvnot $e269))))
(let (($e274 ((_ extract 1 1) $e236)))
(let (($e275 (bvand (bvnot $e274) (bvnot $e273))))
(let (($e276 (concat $e5 $e275)))
(let (($e277 (ite (bvult $e276 $e268) #b1 #b0)))
(let (($e278 (bvand (bvnot bvlambda_6_) $e277)))
(let (($e279 (ite (= $e278 (bvnot $e265)) #b1 #b0)))
(let (($e280 (select $e130 $e1)))
(let (($e281 (concat $e18 $e280)))
(let (($e282 (ite (bvult (bvnot $e3) $e281) #b1 #b0)))
(let (($e283 ((_ extract 0 0) $e89)))
(let (($e284 (ite (= $e275 $e283) #b1 #b0)))
(let (($e285 ((_ extract 10 1) $e89)))
(let (($e286 (ite (= $e26 $e285) #b1 #b0)))
(let (($e287 (bvand $e286 $e284)))
(let (($e288 (bvand (bvnot $e287) $e282)))
(let (($e289 (bvand $e288 (bvnot $e279))))
(let (($e290 (bvand (bvnot $e146) (bvnot $e176))))
(let (($e291 ((_ extract 14 1) $e66)))
(let (($e292 (select a43 $e291)))
(let (($e293 ((_ extract 10 10) $e292)))
(let (($e294 (bvand (bvnot $e293) (bvnot $e290))))
(let (($e295 ((_ extract 6 6) $e230)))
(let (($e296 (bvand $e94 $e295)))
(let (($e297 (bvand (bvnot $e94) (bvnot $e295))))
(let (($e298 (bvand (bvnot $e297) (bvnot $e296))))
(let (($e299 ((_ extract 5 0) $e83)))
(let (($e300 ((_ extract 5 0) $e230)))
(let (($e301 (ite (bvult (bvnot $e300) $e299) #b1 #b0)))
(let (($e302 (bvand $e301 $e298)))
(let (($e303 (bvand (bvnot $e297) (bvnot $e302))))
(let (($e304 (bvand (bvnot $e303) $e294)))
(let (($e305 ((_ extract 1 0) $e79)))
(let (($e306 (ite (= $e150 $e305) #b1 #b0)))
(let (($e307 ((_ extract 10 2) $e79)))
(let (($e308 (ite (= $e14 $e307) #b1 #b0)))
(let (($e309 (bvand $e308 $e306)))
(let (($e310 (concat bvlambda_6_ bvlambda_7_)))
(let (($e311 (select a41 $e310)))
(let (($e312 ((_ extract 3 0) $e311)))
(let (($e313 (ite (= v0 $e312) #b1 #b0)))
(let (($e314 ((_ extract 7 4) $e311)))
(let (($e315 (ite (= $e21 $e314) #b1 #b0)))
(let (($e316 (bvand $e315 $e313)))
(let (($e317 (ite (= $e316 $e309) #b1 #b0)))
(let (($e318 (bvand (bvnot $e317) (bvnot $e304))))
(let (($e319 (concat $e17 $e275)))
(let (($e320 (ite (bvult v0 $e319) #b1 #b0)))
(let (($e321 (concat (bvnot $e16) (bvnot $e320))))
(let (($e322 (concat $e16 (bvnot $e320))))
(let (($e323 (ite (= #b1 $e320) $e322 $e321)))
(let (($e324 ((_ extract 4 0) $e323)))
(let (($e325 (ite (bvult (bvnot $e29) $e324) #b1 #b0)))
(let (($e326 ((_ extract 5 5) $e323)))
(let (($e327 (bvand (bvnot $e326) $e325)))
(let (($e328 (bvand (bvnot $e327) (bvnot $e318))))
(let (($e329 (concat $e27 $e280)))
(let (($e330 (ite (bvult $e66 $e329) #b1 #b0)))
(let (($e331 (concat $e1 (bvnot $e320))))
(let (($e332 (ite (bvult $e331 $e131) #b1 #b0)))
(let (($e333 (bvand (bvnot $e332) (bvnot $e330))))
(let (($e334 (ite (= $e52 $e192) #b1 #b0)))
(let (($e335 (concat $e13 $e334)))
(let (($e336 (ite (bvult $e335 $e132) #b1 #b0)))
(let (($e337 (bvand $e336 $e332)))
(let (($e338 (bvand (bvnot $e337) (bvnot $e333))))
(let (($e339 (concat $e27 $e161)))
(let (($e340 (ite (bvult $e59 $e339) #b1 #b0)))
(let (($e341 (concat $e5 $e174)))
(let (($e342 (concat (bvnot $e5) $e174)))
(let (($e343 ((_ extract 7 7) $e174)))
(let (($e344 (ite (= #b1 $e343) $e342 $e341)))
(let (($e345 (ite (= $e2 $e344) #b1 #b0)))
(let (($e346 (ite (= $e345 $e340) #b1 #b0)))
(let (($e347 (bvand $e346 $e338)))
(let (($e348 (bvand (bvnot $e347) $e318)))
(let (($e349 (bvand (bvnot $e348) (bvnot $e328))))
(let (($e350 (ite (= $e349 (bvnot $e289)) #b1 #b0)))
(let (($e351 (ite (bvult $e54 $e60) #b1 #b0)))
(let (($e352 (concat $e16 $e180)))
(let (($e353 (ite (bvult $e188 $e352) #b1 #b0)))
(let (($e354 (bvand (bvnot $e191) (bvnot $e353))))
(let (($e355 (bvand (bvnot $e354) (bvnot $e351))))
(let (($e356 (bvand $e354 $e351)))
(let (($e357 (bvand (bvnot $e356) (bvnot $e355))))
(let (($e358 ((_ extract 0 0) $e132)))
(let (($e359 (ite (= (bvnot $e146) $e358) #b1 #b0)))
(let (($e360 ((_ extract 7 1) $e132)))
(let (($e361 (ite (= $e13 $e360) #b1 #b0)))
(let (($e362 (bvand $e361 $e359)))
(let (($e363 (bvand $e362 (bvnot $e357))))
(let (($e364 (ite (= $e363 $e350) #b1 #b0)))
(let (($e365 (ite (= $e25 $e66) #b1 #b0)))
(let (($e366 (ite (= (bvnot $e25) $e66) #b1 #b0)))
(let (($e367 (ite (= $e22 $e89) #b1 #b0)))
(let (($e368 (ite (= $e13 $e83) #b1 #b0)))
(let (($e369 (ite (= (bvnot $e13) $e83) #b1 #b0)))
(let (($e370 (ite (= $e25 $e60) #b1 #b0)))
(let (($e371 (ite (= (bvnot $e25) $e60) #b1 #b0)))
(let (($e372 (bvand (bvnot $e371) (bvnot $e370))))
(let (($e373 (bvand $e372 (bvnot $e369))))
(let (($e374 (bvand $e373 (bvnot $e368))))
(let (($e375 (bvand $e374 (bvnot $e367))))
(let (($e376 (bvand $e375 (bvnot $e366))))
(let (($e377 (bvand $e376 (bvnot $e365))))
(let (($e378 (bvand $e377 (bvnot $e364))))
(let (($e379 (bvand $e378 (bvnot $e261))))
 (not (= $e379 #b0)))))))))))))))))))))))))))))))))))))))))))))))))))))))))))))))))))))))))))))))))))))))))))))))))))))))))))))))))))))))))))))))))))))))))))))))))))))))))))))))))))))))))))))))))))))))))))))))))))))))))))))))))))))))))))))))))))))))))))))))))))))))))))))))))))))))))))))))))))))))))))))))))))))))))))))))))))))))))))))))))))))))))))))))))))))))))))))))))))))))))))))
(check-sat)
(exit)
